DIM: 32
FLOW: 
0 0 0 0 0 0 0 0 0 0 0 0 0 0 0 0 0 0 0 0 0 0 0 0 0 0 0 0 0 0 0 0 
0 0 1 1 1 0 0 0 0 0 0 0 0 0 0 0 0 0 0 0 0 0 0 0 0 0 0 0 0 0 0 0 
0 1 0 2 1 0 0 0 0 0 0 0 0 0 0 0 0 0 0 0 0 0 0 0 0 0 0 0 0 0 0 0 
0 1 2 0 3 0 0 0 0 0 0 0 0 0 0 0 0 0 0 0 0 0 0 0 0 0 0 0 0 0 0 0 
0 1 1 3 0 0 0 0 0 0 0 0 0 0 0 0 0 0 0 0 0 0 0 0 0 0 0 0 0 0 0 0 
0 0 0 0 0 0 0 0 0 0 0 0 0 0 0 0 0 0 0 0 0 0 0 0 0 0 0 0 0 0 0 0 
0 0 0 0 0 0 0 0 0 0 1 0 1 0 0 0 0 0 0 0 0 0 0 0 0 0 0 0 0 0 0 0 
0 0 0 0 0 0 0 0 0 0 0 0 0 0 0 0 0 0 0 0 0 0 0 0 0 0 0 0 0 0 0 0 
0 0 0 0 0 0 0 0 0 0 0 0 0 0 0 0 0 0 0 0 0 0 0 0 0 0 0 0 0 0 0 0 
0 0 0 0 0 0 0 0 0 0 0 0 0 0 0 0 0 0 0 0 0 0 0 0 0 0 0 0 0 0 0 0 
0 0 0 0 0 0 1 0 0 0 0 0 3 0 0 0 0 0 0 0 0 0 0 0 0 0 0 0 0 0 0 0 
0 0 0 0 0 0 0 0 0 0 0 0 0 0 0 0 0 0 0 0 0 0 0 0 0 0 0 0 0 0 0 0 
0 0 0 0 0 0 1 0 0 0 3 0 0 0 0 0 0 0 0 0 0 0 0 0 0 0 0 0 0 0 0 0 
0 0 0 0 0 0 0 0 0 0 0 0 0 0 0 0 0 0 0 0 0 0 0 0 0 0 0 0 0 0 0 0 
0 0 0 0 0 0 0 0 0 0 0 0 0 0 0 0 0 0 0 0 0 0 0 0 0 0 0 0 0 0 0 0 
0 0 0 0 0 0 0 0 0 0 0 0 0 0 0 0 0 0 0 0 0 0 0 0 0 0 0 0 0 0 0 0 
0 0 0 0 0 0 0 0 0 0 0 0 0 0 0 0 0 0 0 0 0 0 0 0 0 0 0 0 0 0 0 0 
0 0 0 0 0 0 0 0 0 0 0 0 0 0 0 0 0 0 0 0 0 0 0 0 0 0 0 0 0 0 0 0 
0 0 0 0 0 0 0 0 0 0 0 0 0 0 0 0 0 0 0 0 0 0 0 0 0 0 0 0 0 0 0 0 
0 0 0 0 0 0 0 0 0 0 0 0 0 0 0 0 0 0 0 0 0 0 0 0 0 0 0 0 0 0 0 0 
0 0 0 0 0 0 0 0 0 0 0 0 0 0 0 0 0 0 0 0 0 0 0 0 0 0 0 0 0 0 0 0 
0 0 0 0 0 0 0 0 0 0 0 0 0 0 0 0 0 0 0 0 0 0 0 0 0 0 0 0 0 0 0 0 
0 0 0 0 0 0 0 0 0 0 0 0 0 0 0 0 0 0 0 0 0 0 0 0 0 0 0 0 0 0 0 0 
0 0 0 0 0 0 0 0 0 0 0 0 0 0 0 0 0 0 0 0 0 0 0 0 0 0 0 0 0 0 0 0 
0 0 0 0 0 0 0 0 0 0 0 0 0 0 0 0 0 0 0 0 0 0 0 0 0 0 0 0 0 0 0 0 
0 0 0 0 0 0 0 0 0 0 0 0 0 0 0 0 0 0 0 0 0 0 0 0 0 0 0 0 0 0 0 0 
0 0 0 0 0 0 0 0 0 0 0 0 0 0 0 0 0 0 0 0 0 0 0 0 0 0 0 0 0 0 0 0 
0 0 0 0 0 0 0 0 0 0 0 0 0 0 0 0 0 0 0 0 0 0 0 0 0 0 0 0 0 0 0 0 
0 0 0 0 0 0 0 0 0 0 0 0 0 0 0 0 0 0 0 0 0 0 0 0 0 0 0 0 0 0 0 0 
0 0 0 0 0 0 0 0 0 0 0 0 0 0 0 0 0 0 0 0 0 0 0 0 0 0 0 0 0 0 0 0 
0 0 0 0 0 0 0 0 0 0 0 0 0 0 0 0 0 0 0 0 0 0 0 0 0 0 0 0 0 0 0 0 
0 0 0 0 0 0 0 0 0 0 0 0 0 0 0 0 0 0 0 0 0 0 0 0 0 0 0 0 0 0 0 0 
FLOW: 
0 0 1 0 1 0 2 1 1 0 2 1 2 1 3 2 1 0 2 1 2 1 3 2 2 1 3 2 3 2 4 3 
0 1 0 0 1 2 0 1 1 2 0 1 2 3 1 2 1 2 0 1 2 3 1 2 2 3 1 2 3 4 2 3 
1 0 0 0 2 1 1 0 2 1 1 0 3 2 2 1 2 1 1 0 3 2 2 1 3 2 2 1 4 3 3 2 
0 1 1 2 0 0 0 1 1 2 2 3 0 1 1 2 1 2 2 3 0 1 1 2 2 3 3 4 1 2 2 3 
1 0 2 1 0 0 1 0 2 1 3 2 1 0 2 1 2 1 3 2 1 0 2 1 3 2 4 3 2 1 3 2 
1 2 0 1 0 1 0 0 2 3 1 2 1 2 0 1 2 3 1 2 1 2 0 1 3 4 2 3 2 3 1 2 
2 1 1 0 1 0 0 0 3 2 2 1 2 1 1 0 3 2 2 1 2 1 1 0 4 3 3 2 3 2 2 1 
0 1 1 2 1 2 2 3 0 0 0 1 0 1 1 2 1 2 2 3 2 3 3 4 0 1 1 2 1 2 2 3 
1 0 2 1 2 1 3 2 0 0 1 0 1 0 2 1 2 1 3 2 3 2 4 3 1 0 2 1 2 1 3 2 
1 2 0 1 2 3 1 2 0 1 0 0 1 2 0 1 2 3 1 2 3 4 2 3 1 2 0 1 2 3 1 2 
2 1 1 0 3 2 2 1 1 0 0 0 2 1 1 0 3 2 2 1 4 3 3 2 2 1 1 0 3 2 2 1 
1 2 2 3 0 1 1 2 0 1 1 2 0 0 0 1 2 3 3 4 1 2 2 3 1 2 2 3 0 1 1 2 
2 1 3 2 1 0 2 1 1 0 2 1 0 0 1 0 3 2 4 3 2 1 3 2 2 1 3 2 1 0 2 1 
2 3 1 2 1 2 0 1 1 2 0 1 0 1 0 0 3 4 2 3 2 3 1 2 2 3 1 2 1 2 0 1 
3 2 2 1 2 1 1 0 2 1 1 0 1 0 0 0 4 3 3 2 3 2 2 1 3 2 2 1 2 1 1 0 
0 1 1 2 1 2 2 3 1 2 2 3 2 3 3 4 0 0 0 1 0 1 1 2 0 1 1 2 1 2 2 3 
1 0 2 1 2 1 3 2 2 1 3 2 3 2 4 3 0 0 1 0 1 0 2 1 1 0 2 1 2 1 3 2 
1 2 0 1 2 3 1 2 2 3 1 2 3 4 2 3 0 1 0 0 1 2 0 1 1 2 0 1 2 3 1 2 
2 1 1 0 3 2 2 1 3 2 2 1 4 3 3 2 1 0 0 0 2 1 1 0 2 1 1 0 3 2 2 1 
1 2 2 3 0 1 1 2 2 3 3 4 1 2 2 3 0 1 1 2 0 0 0 1 1 2 2 3 0 1 1 2 
2 1 3 2 1 0 2 1 3 2 4 3 2 1 3 2 1 0 2 1 0 0 1 0 2 1 3 2 1 0 2 1 
2 3 1 2 1 2 0 1 3 4 2 3 2 3 1 2 1 2 0 1 0 1 0 0 2 3 1 2 1 2 0 1 
3 2 2 1 2 1 1 0 4 3 3 2 3 2 2 1 2 1 1 0 1 0 0 0 3 2 2 1 2 1 1 0 
1 2 2 3 2 3 3 4 0 1 1 2 1 2 2 3 0 1 1 2 1 2 2 3 0 0 0 1 0 1 1 2 
2 1 3 2 3 2 4 3 1 0 2 1 2 1 3 2 1 0 2 1 2 1 3 2 0 0 1 0 1 0 2 1 
2 3 1 2 3 4 2 3 1 2 0 1 2 3 1 2 1 2 0 1 2 3 1 2 0 1 0 0 1 2 0 1 
3 2 2 1 4 3 3 2 2 1 1 0 3 2 2 1 2 1 1 0 3 2 2 1 1 0 0 0 2 1 1 0 
2 3 3 4 1 2 2 3 1 2 2 3 0 1 1 2 1 2 2 3 0 1 1 2 0 1 1 2 0 0 0 1 
3 2 4 3 2 1 3 2 2 1 3 2 1 0 2 1 2 1 3 2 1 0 2 1 1 0 2 1 0 0 1 0 
3 4 2 3 2 3 1 2 2 3 1 2 1 2 0 1 2 3 1 2 1 2 0 1 1 2 0 1 0 1 0 0 
4 3 3 2 3 2 2 1 3 2 2 1 2 1 1 0 3 2 2 1 2 1 1 0 2 1 1 0 1 0 0 0 

OPT_OBJ: 6
OPT_SOLUTION: 
14 15 16 12 11 26 30 10 25 8 29 22 31 28 13 1 19 9 17 32 24 18 4 2 20 5 21 3 7 6 23 27 